(set-info :smt-lib-version 2.6)
(set-logic QF_NIA)
(set-info :source |
Generated by: Cristina Borralleras, Daniel Larraz, Albert Oliveras, Enric Rodriguez-Carbonell, Albert Rubio
Generated on: 2017-04-27
Generator: VeryMax
Application: Termination proving
Target solver: barcelogic
|)
(set-info :license "https://creativecommons.org/licenses/by/4.0/")
(set-info :category "industrial")
(set-info :status sat)
(declare-fun Nl11arg11 () Int)
(declare-fun Nl11arg21 () Int)
(declare-fun Nl11arg31 () Int)
(declare-fun Nl11arg41 () Int)
(declare-fun Nl11arg51 () Int)
(declare-fun Nl11arg12 () Int)
(declare-fun Nl11arg22 () Int)
(declare-fun Nl11arg32 () Int)
(declare-fun Nl11arg42 () Int)
(declare-fun Nl11arg52 () Int)
(declare-fun Nl11arg13 () Int)
(declare-fun Nl11arg23 () Int)
(declare-fun Nl11arg33 () Int)
(declare-fun Nl11arg43 () Int)
(declare-fun Nl11arg53 () Int)
(declare-fun lam0n0 () Int)
(declare-fun lam0n1 () Int)
(declare-fun lam0n2 () Int)
(declare-fun lam0n3 () Int)
(declare-fun lam0n4 () Int)
(declare-fun lam0n5 () Int)
(declare-fun lam0n6 () Int)
(declare-fun lam0n7 () Int)
(declare-fun lam0n8 () Int)
(declare-fun lam0n9 () Int)
(declare-fun lam0n10 () Int)
(declare-fun Nl11CT1 () Int)
(declare-fun Nl11CT2 () Int)
(declare-fun Nl11CT3 () Int)
(declare-fun lam1n0 () Int)
(declare-fun lam1n1 () Int)
(declare-fun lam1n2 () Int)
(declare-fun lam1n3 () Int)
(declare-fun lam1n4 () Int)
(declare-fun lam1n5 () Int)
(declare-fun lam1n6 () Int)
(declare-fun lam1n7 () Int)
(declare-fun lam1n8 () Int)
(declare-fun lam1n9 () Int)
(declare-fun lam1n10 () Int)
(declare-fun lam2n0 () Int)
(declare-fun lam2n1 () Int)
(declare-fun lam2n2 () Int)
(declare-fun lam2n3 () Int)
(declare-fun lam2n4 () Int)
(declare-fun lam2n5 () Int)
(declare-fun lam2n6 () Int)
(declare-fun lam2n7 () Int)
(declare-fun lam2n8 () Int)
(declare-fun lam2n9 () Int)
(declare-fun lam2n10 () Int)
(declare-fun lam3n0 () Int)
(declare-fun lam3n1 () Int)
(declare-fun lam3n2 () Int)
(declare-fun lam3n3 () Int)
(declare-fun lam3n4 () Int)
(declare-fun lam3n5 () Int)
(declare-fun lam3n6 () Int)
(declare-fun lam3n7 () Int)
(declare-fun lam3n8 () Int)
(declare-fun lam3n9 () Int)
(declare-fun lam3n10 () Int)
(declare-fun lam4n0 () Int)
(declare-fun lam4n1 () Int)
(declare-fun lam4n2 () Int)
(declare-fun lam4n3 () Int)
(declare-fun lam4n4 () Int)
(declare-fun lam4n5 () Int)
(declare-fun lam4n6 () Int)
(declare-fun lam4n7 () Int)
(declare-fun lam4n8 () Int)
(declare-fun lam4n9 () Int)
(declare-fun lam4n10 () Int)
(declare-fun lam4n11 () Int)
(declare-fun lam4n12 () Int)
(declare-fun lam4n13 () Int)
(declare-fun lam4n14 () Int)
(declare-fun lam4n15 () Int)
(declare-fun lam4n16 () Int)
(declare-fun lam4n17 () Int)
(declare-fun lam5n0 () Int)
(declare-fun lam5n1 () Int)
(declare-fun lam5n2 () Int)
(declare-fun lam5n3 () Int)
(declare-fun lam5n4 () Int)
(declare-fun lam5n5 () Int)
(declare-fun lam5n6 () Int)
(declare-fun lam5n7 () Int)
(declare-fun lam5n8 () Int)
(declare-fun lam5n9 () Int)
(declare-fun lam5n10 () Int)
(declare-fun lam5n11 () Int)
(declare-fun lam5n12 () Int)
(declare-fun lam5n13 () Int)
(declare-fun lam5n14 () Int)
(declare-fun lam5n15 () Int)
(declare-fun lam5n16 () Int)
(declare-fun lam5n17 () Int)
(declare-fun lam6n0 () Int)
(declare-fun lam6n1 () Int)
(declare-fun lam6n2 () Int)
(declare-fun lam6n3 () Int)
(declare-fun lam6n4 () Int)
(declare-fun lam6n5 () Int)
(declare-fun lam6n6 () Int)
(declare-fun lam6n7 () Int)
(declare-fun lam6n8 () Int)
(declare-fun lam6n9 () Int)
(declare-fun lam6n10 () Int)
(declare-fun lam6n11 () Int)
(declare-fun lam6n12 () Int)
(declare-fun lam6n13 () Int)
(declare-fun lam6n14 () Int)
(declare-fun lam6n15 () Int)
(declare-fun lam6n16 () Int)
(declare-fun lam6n17 () Int)
(declare-fun lam7n0 () Int)
(declare-fun lam7n1 () Int)
(declare-fun lam7n2 () Int)
(declare-fun lam7n3 () Int)
(declare-fun lam7n4 () Int)
(declare-fun lam7n5 () Int)
(declare-fun lam7n6 () Int)
(declare-fun lam7n7 () Int)
(declare-fun lam7n8 () Int)
(declare-fun lam7n9 () Int)
(declare-fun lam7n10 () Int)
(declare-fun lam7n11 () Int)
(declare-fun lam8n0 () Int)
(declare-fun lam8n1 () Int)
(declare-fun lam8n2 () Int)
(declare-fun lam8n3 () Int)
(declare-fun lam8n4 () Int)
(declare-fun lam8n5 () Int)
(declare-fun lam8n6 () Int)
(declare-fun lam8n7 () Int)
(declare-fun lam8n8 () Int)
(declare-fun lam8n9 () Int)
(declare-fun lam8n10 () Int)
(declare-fun lam8n11 () Int)
(declare-fun lam9n0 () Int)
(declare-fun lam9n1 () Int)
(declare-fun lam9n2 () Int)
(declare-fun lam9n3 () Int)
(declare-fun lam9n4 () Int)
(declare-fun lam9n5 () Int)
(declare-fun lam9n6 () Int)
(declare-fun lam9n7 () Int)
(declare-fun lam9n8 () Int)
(declare-fun lam9n9 () Int)
(declare-fun lam9n10 () Int)
(declare-fun lam9n11 () Int)
(declare-fun undef1 () Int)
(declare-fun undef2 () Int)
(declare-fun undef289 () Int)
(declare-fun undef290 () Int)
(declare-fun undef292 () Int)
(declare-fun undef301 () Int)
(declare-fun undef302 () Int)
(declare-fun undef366 () Int)
(declare-fun undef303 () Int)
(declare-fun undef367 () Int)
(declare-fun undef291 () Int)
(declare-fun undef293 () Int)
(declare-fun arg1 () Int)
(declare-fun arg2 () Int)
(declare-fun undef276 () Int)
(declare-fun undef277 () Int)
(declare-fun undef279 () Int)
(declare-fun arg3 () Int)
(declare-fun undef288 () Int)
(declare-fun undef278 () Int)
(declare-fun undef280 () Int)
(declare-fun lam13n0 () Int)
(declare-fun lam13n1 () Int)
(declare-fun lam13n2 () Int)
(declare-fun lam13n3 () Int)
(declare-fun lam13n4 () Int)
(declare-fun lam13n5 () Int)
(declare-fun lam13n6 () Int)
(declare-fun lam13n7 () Int)
(declare-fun lam13n8 () Int)
(declare-fun lam13n9 () Int)
(declare-fun lam13n10 () Int)
(declare-fun RFN1_CT () Int)
(declare-fun RFN1_arg1 () Int)
(declare-fun RFN1_arg2 () Int)
(declare-fun RFN1_arg3 () Int)
(declare-fun RFN1_arg4 () Int)
(declare-fun RFN1_arg5 () Int)
(declare-fun lam11n0 () Int)
(declare-fun lam11n1 () Int)
(declare-fun lam11n2 () Int)
(declare-fun lam11n3 () Int)
(declare-fun lam11n4 () Int)
(declare-fun lam11n5 () Int)
(declare-fun lam11n6 () Int)
(declare-fun lam11n7 () Int)
(declare-fun lam11n8 () Int)
(declare-fun lam11n9 () Int)
(declare-fun lam11n10 () Int)
(declare-fun lam12n0 () Int)
(declare-fun lam12n1 () Int)
(declare-fun lam12n2 () Int)
(declare-fun lam12n3 () Int)
(declare-fun lam12n4 () Int)
(declare-fun lam12n5 () Int)
(declare-fun lam12n6 () Int)
(declare-fun lam12n7 () Int)
(declare-fun lam12n8 () Int)
(declare-fun lam12n9 () Int)
(declare-fun lam12n10 () Int)
(declare-fun lam10n0 () Int)
(declare-fun lam10n1 () Int)
(declare-fun lam10n2 () Int)
(declare-fun lam10n3 () Int)
(declare-fun lam10n4 () Int)
(declare-fun lam10n5 () Int)
(declare-fun lam10n6 () Int)
(declare-fun lam10n7 () Int)
(declare-fun lam10n8 () Int)
(declare-fun lam10n9 () Int)
(declare-fun lam10n10 () Int)
(assert ( and ( <= ( - 1 ) Nl11arg11 ) ( <= Nl11arg11 1 ) ( <= ( - 1 ) Nl11arg21 ) ( <= Nl11arg21 1 ) ( <= ( - 1 ) Nl11arg31 ) ( <= Nl11arg31 1 ) ( <= ( - 1 ) Nl11arg41 ) ( <= Nl11arg41 1 ) ( <= ( - 1 ) Nl11arg51 ) ( <= Nl11arg51 1 ) ( <= ( - 1 ) Nl11arg12 ) ( <= Nl11arg12 1 ) ( <= ( - 1 ) Nl11arg22 ) ( <= Nl11arg22 1 ) ( <= ( - 1 ) Nl11arg32 ) ( <= Nl11arg32 1 ) ( <= ( - 1 ) Nl11arg42 ) ( <= Nl11arg42 1 ) ( <= ( - 1 ) Nl11arg52 ) ( <= Nl11arg52 1 ) ( <= ( - 1 ) Nl11arg13 ) ( <= Nl11arg13 1 ) ( <= ( - 1 ) Nl11arg23 ) ( <= Nl11arg23 1 ) ( <= ( - 1 ) Nl11arg33 ) ( <= Nl11arg33 1 ) ( <= ( - 1 ) Nl11arg43 ) ( <= Nl11arg43 1 ) ( <= ( - 1 ) Nl11arg53 ) ( <= Nl11arg53 1 ) ))
(assert ( or ( and ( >= lam0n0 0 ) ( >= lam0n1 0 ) ( >= lam0n2 0 ) ( >= lam0n3 0 ) ( >= lam0n4 0 ) ( >= lam0n5 0 ) ( >= lam0n6 0 ) ( >= lam0n7 0 ) ( >= lam0n8 0 ) ( >= lam0n9 0 ) ( >= lam0n10 0 ) ( > ( + ( * 1 lam0n0 ) ( * 1 lam0n1 ) ( * 1 lam0n2 ) ( * 2 lam0n4 ) ( * 2 lam0n5 ) ( * 2 lam0n6 ) ( * 3 lam0n7 ) ( * Nl11CT1 lam0n8 ) ( * Nl11CT2 lam0n9 ) ( * Nl11CT3 lam0n10 ) ( - 1 ) ) 0 ) ( = ( + ( * ( - 1 ) lam0n0 ) ( * ( - 1 ) lam0n4 ) ( * ( - 1 ) lam0n5 ) ( * ( - 1 ) lam0n6 ) ( * ( - 1 ) lam0n7 ) ( * Nl11arg11 lam0n8 ) ( * Nl11arg12 lam0n9 ) ( * Nl11arg13 lam0n10 ) ) 0 ) ( = ( + ( * ( - 1 ) lam0n0 ) ( * ( - 1 ) lam0n1 ) ( * ( - 1 ) lam0n4 ) ( * Nl11arg21 lam0n8 ) ( * Nl11arg22 lam0n9 ) ( * Nl11arg23 lam0n10 ) ) 0 ) ( = ( + ( * 1 lam0n4 ) ( * 1 lam0n5 ) ( * Nl11arg31 lam0n8 ) ( * Nl11arg32 lam0n9 ) ( * Nl11arg33 lam0n10 ) ) 0 ) ( = ( + ( * 1 lam0n0 ) ( * 1 lam0n6 ) ( * Nl11arg41 lam0n8 ) ( * Nl11arg42 lam0n9 ) ( * Nl11arg43 lam0n10 ) ) 0 ) ( = ( + ( * Nl11arg51 lam0n8 ) ( * Nl11arg52 lam0n9 ) ( * Nl11arg53 lam0n10 ) ) 0 ) ( = ( * ( - 1 ) lam0n2 ) 0 ) ( = ( * ( - 1 ) lam0n3 ) 0 ) ) ( and ( >= lam1n0 0 ) ( >= lam1n1 0 ) ( >= lam1n2 0 ) ( >= lam1n3 0 ) ( >= lam1n4 0 ) ( >= lam1n5 0 ) ( >= lam1n6 0 ) ( >= lam1n7 0 ) ( >= lam1n8 0 ) ( >= lam1n9 0 ) ( >= lam1n10 0 ) ( > ( + ( * 1 lam1n0 ) ( * 1 lam1n1 ) ( * 1 lam1n2 ) ( * 2 lam1n4 ) ( * 2 lam1n5 ) ( * 2 lam1n6 ) ( * 3 lam1n7 ) ( * Nl11CT1 lam1n8 ) ( * Nl11CT2 lam1n9 ) ( * Nl11CT3 lam1n10 ) ( - 1 ( + ( + ( + ( + ( + Nl11CT1 ( * Nl11arg11 0 ) ) ( * Nl11arg21 0 ) ) ( * Nl11arg31 0 ) ) ( * Nl11arg41 0 ) ) ( * Nl11arg51 0 ) ) ) ) 0 ) ( = ( + ( * ( - 1 ) lam1n0 ) ( * ( - 1 ) lam1n4 ) ( * ( - 1 ) lam1n5 ) ( * ( - 1 ) lam1n6 ) ( * ( - 1 ) lam1n7 ) ( * Nl11arg11 lam1n8 ) ( * Nl11arg12 lam1n9 ) ( * Nl11arg13 lam1n10 ) ) 0 ) ( = ( + ( * ( - 1 ) lam1n0 ) ( * ( - 1 ) lam1n1 ) ( * ( - 1 ) lam1n4 ) ( * Nl11arg21 lam1n8 ) ( * Nl11arg22 lam1n9 ) ( * Nl11arg23 lam1n10 ) ) 0 ) ( = ( + ( * 1 lam1n4 ) ( * 1 lam1n5 ) ( * Nl11arg31 lam1n8 ) ( * Nl11arg32 lam1n9 ) ( * Nl11arg33 lam1n10 ) ) 0 ) ( = ( + ( * 1 lam1n0 ) ( * 1 lam1n6 ) ( * Nl11arg41 lam1n8 ) ( * Nl11arg42 lam1n9 ) ( * Nl11arg43 lam1n10 ) ) 0 ) ( = ( + ( * Nl11arg51 lam1n8 ) ( * Nl11arg52 lam1n9 ) ( * Nl11arg53 lam1n10 ) ) 0 ) ( = ( + ( * ( - 1 ) lam1n2 ) ( - ( + 0 ( * Nl11arg11 1 ) ) ) ) 0 ) ( = ( + ( * ( - 1 ) lam1n3 ) ( - ( + 0 ( * Nl11arg21 1 ) ) ) ) 0 ) ( = ( - ( + 0 ( * Nl11arg31 1 ) ) ) 0 ) ( = ( - ( + 0 ( * Nl11arg41 1 ) ) ) 0 ) ( = ( - ( + 0 ( * Nl11arg51 1 ) ) ) 0 ) ) ))
(assert ( or ( and ( >= lam0n0 0 ) ( >= lam0n1 0 ) ( >= lam0n2 0 ) ( >= lam0n3 0 ) ( >= lam0n4 0 ) ( >= lam0n5 0 ) ( >= lam0n6 0 ) ( >= lam0n7 0 ) ( >= lam0n8 0 ) ( >= lam0n9 0 ) ( >= lam0n10 0 ) ( > ( + ( * 1 lam0n0 ) ( * 1 lam0n1 ) ( * 1 lam0n2 ) ( * 2 lam0n4 ) ( * 2 lam0n5 ) ( * 2 lam0n6 ) ( * 3 lam0n7 ) ( * Nl11CT1 lam0n8 ) ( * Nl11CT2 lam0n9 ) ( * Nl11CT3 lam0n10 ) ( - 1 ) ) 0 ) ( = ( + ( * ( - 1 ) lam0n0 ) ( * ( - 1 ) lam0n4 ) ( * ( - 1 ) lam0n5 ) ( * ( - 1 ) lam0n6 ) ( * ( - 1 ) lam0n7 ) ( * Nl11arg11 lam0n8 ) ( * Nl11arg12 lam0n9 ) ( * Nl11arg13 lam0n10 ) ) 0 ) ( = ( + ( * ( - 1 ) lam0n0 ) ( * ( - 1 ) lam0n1 ) ( * ( - 1 ) lam0n4 ) ( * Nl11arg21 lam0n8 ) ( * Nl11arg22 lam0n9 ) ( * Nl11arg23 lam0n10 ) ) 0 ) ( = ( + ( * 1 lam0n4 ) ( * 1 lam0n5 ) ( * Nl11arg31 lam0n8 ) ( * Nl11arg32 lam0n9 ) ( * Nl11arg33 lam0n10 ) ) 0 ) ( = ( + ( * 1 lam0n0 ) ( * 1 lam0n6 ) ( * Nl11arg41 lam0n8 ) ( * Nl11arg42 lam0n9 ) ( * Nl11arg43 lam0n10 ) ) 0 ) ( = ( + ( * Nl11arg51 lam0n8 ) ( * Nl11arg52 lam0n9 ) ( * Nl11arg53 lam0n10 ) ) 0 ) ( = ( * ( - 1 ) lam0n2 ) 0 ) ( = ( * ( - 1 ) lam0n3 ) 0 ) ) ( and ( >= lam2n0 0 ) ( >= lam2n1 0 ) ( >= lam2n2 0 ) ( >= lam2n3 0 ) ( >= lam2n4 0 ) ( >= lam2n5 0 ) ( >= lam2n6 0 ) ( >= lam2n7 0 ) ( >= lam2n8 0 ) ( >= lam2n9 0 ) ( >= lam2n10 0 ) ( > ( + ( * 1 lam2n0 ) ( * 1 lam2n1 ) ( * 1 lam2n2 ) ( * 2 lam2n4 ) ( * 2 lam2n5 ) ( * 2 lam2n6 ) ( * 3 lam2n7 ) ( * Nl11CT1 lam2n8 ) ( * Nl11CT2 lam2n9 ) ( * Nl11CT3 lam2n10 ) ( - 1 ( + ( + ( + ( + ( + Nl11CT2 ( * Nl11arg12 0 ) ) ( * Nl11arg22 0 ) ) ( * Nl11arg32 0 ) ) ( * Nl11arg42 0 ) ) ( * Nl11arg52 0 ) ) ) ) 0 ) ( = ( + ( * ( - 1 ) lam2n0 ) ( * ( - 1 ) lam2n4 ) ( * ( - 1 ) lam2n5 ) ( * ( - 1 ) lam2n6 ) ( * ( - 1 ) lam2n7 ) ( * Nl11arg11 lam2n8 ) ( * Nl11arg12 lam2n9 ) ( * Nl11arg13 lam2n10 ) ) 0 ) ( = ( + ( * ( - 1 ) lam2n0 ) ( * ( - 1 ) lam2n1 ) ( * ( - 1 ) lam2n4 ) ( * Nl11arg21 lam2n8 ) ( * Nl11arg22 lam2n9 ) ( * Nl11arg23 lam2n10 ) ) 0 ) ( = ( + ( * 1 lam2n4 ) ( * 1 lam2n5 ) ( * Nl11arg31 lam2n8 ) ( * Nl11arg32 lam2n9 ) ( * Nl11arg33 lam2n10 ) ) 0 ) ( = ( + ( * 1 lam2n0 ) ( * 1 lam2n6 ) ( * Nl11arg41 lam2n8 ) ( * Nl11arg42 lam2n9 ) ( * Nl11arg43 lam2n10 ) ) 0 ) ( = ( + ( * Nl11arg51 lam2n8 ) ( * Nl11arg52 lam2n9 ) ( * Nl11arg53 lam2n10 ) ) 0 ) ( = ( + ( * ( - 1 ) lam2n2 ) ( - ( + 0 ( * Nl11arg12 1 ) ) ) ) 0 ) ( = ( + ( * ( - 1 ) lam2n3 ) ( - ( + 0 ( * Nl11arg22 1 ) ) ) ) 0 ) ( = ( - ( + 0 ( * Nl11arg32 1 ) ) ) 0 ) ( = ( - ( + 0 ( * Nl11arg42 1 ) ) ) 0 ) ( = ( - ( + 0 ( * Nl11arg52 1 ) ) ) 0 ) ) ))
(assert ( or ( and ( >= lam0n0 0 ) ( >= lam0n1 0 ) ( >= lam0n2 0 ) ( >= lam0n3 0 ) ( >= lam0n4 0 ) ( >= lam0n5 0 ) ( >= lam0n6 0 ) ( >= lam0n7 0 ) ( >= lam0n8 0 ) ( >= lam0n9 0 ) ( >= lam0n10 0 ) ( > ( + ( * 1 lam0n0 ) ( * 1 lam0n1 ) ( * 1 lam0n2 ) ( * 2 lam0n4 ) ( * 2 lam0n5 ) ( * 2 lam0n6 ) ( * 3 lam0n7 ) ( * Nl11CT1 lam0n8 ) ( * Nl11CT2 lam0n9 ) ( * Nl11CT3 lam0n10 ) ( - 1 ) ) 0 ) ( = ( + ( * ( - 1 ) lam0n0 ) ( * ( - 1 ) lam0n4 ) ( * ( - 1 ) lam0n5 ) ( * ( - 1 ) lam0n6 ) ( * ( - 1 ) lam0n7 ) ( * Nl11arg11 lam0n8 ) ( * Nl11arg12 lam0n9 ) ( * Nl11arg13 lam0n10 ) ) 0 ) ( = ( + ( * ( - 1 ) lam0n0 ) ( * ( - 1 ) lam0n1 ) ( * ( - 1 ) lam0n4 ) ( * Nl11arg21 lam0n8 ) ( * Nl11arg22 lam0n9 ) ( * Nl11arg23 lam0n10 ) ) 0 ) ( = ( + ( * 1 lam0n4 ) ( * 1 lam0n5 ) ( * Nl11arg31 lam0n8 ) ( * Nl11arg32 lam0n9 ) ( * Nl11arg33 lam0n10 ) ) 0 ) ( = ( + ( * 1 lam0n0 ) ( * 1 lam0n6 ) ( * Nl11arg41 lam0n8 ) ( * Nl11arg42 lam0n9 ) ( * Nl11arg43 lam0n10 ) ) 0 ) ( = ( + ( * Nl11arg51 lam0n8 ) ( * Nl11arg52 lam0n9 ) ( * Nl11arg53 lam0n10 ) ) 0 ) ( = ( * ( - 1 ) lam0n2 ) 0 ) ( = ( * ( - 1 ) lam0n3 ) 0 ) ) ( and ( >= lam3n0 0 ) ( >= lam3n1 0 ) ( >= lam3n2 0 ) ( >= lam3n3 0 ) ( >= lam3n4 0 ) ( >= lam3n5 0 ) ( >= lam3n6 0 ) ( >= lam3n7 0 ) ( >= lam3n8 0 ) ( >= lam3n9 0 ) ( >= lam3n10 0 ) ( > ( + ( * 1 lam3n0 ) ( * 1 lam3n1 ) ( * 1 lam3n2 ) ( * 2 lam3n4 ) ( * 2 lam3n5 ) ( * 2 lam3n6 ) ( * 3 lam3n7 ) ( * Nl11CT1 lam3n8 ) ( * Nl11CT2 lam3n9 ) ( * Nl11CT3 lam3n10 ) ( - 1 ( + ( + ( + ( + ( + Nl11CT3 ( * Nl11arg13 0 ) ) ( * Nl11arg23 0 ) ) ( * Nl11arg33 0 ) ) ( * Nl11arg43 0 ) ) ( * Nl11arg53 0 ) ) ) ) 0 ) ( = ( + ( * ( - 1 ) lam3n0 ) ( * ( - 1 ) lam3n4 ) ( * ( - 1 ) lam3n5 ) ( * ( - 1 ) lam3n6 ) ( * ( - 1 ) lam3n7 ) ( * Nl11arg11 lam3n8 ) ( * Nl11arg12 lam3n9 ) ( * Nl11arg13 lam3n10 ) ) 0 ) ( = ( + ( * ( - 1 ) lam3n0 ) ( * ( - 1 ) lam3n1 ) ( * ( - 1 ) lam3n4 ) ( * Nl11arg21 lam3n8 ) ( * Nl11arg22 lam3n9 ) ( * Nl11arg23 lam3n10 ) ) 0 ) ( = ( + ( * 1 lam3n4 ) ( * 1 lam3n5 ) ( * Nl11arg31 lam3n8 ) ( * Nl11arg32 lam3n9 ) ( * Nl11arg33 lam3n10 ) ) 0 ) ( = ( + ( * 1 lam3n0 ) ( * 1 lam3n6 ) ( * Nl11arg41 lam3n8 ) ( * Nl11arg42 lam3n9 ) ( * Nl11arg43 lam3n10 ) ) 0 ) ( = ( + ( * Nl11arg51 lam3n8 ) ( * Nl11arg52 lam3n9 ) ( * Nl11arg53 lam3n10 ) ) 0 ) ( = ( + ( * ( - 1 ) lam3n2 ) ( - ( + 0 ( * Nl11arg13 1 ) ) ) ) 0 ) ( = ( + ( * ( - 1 ) lam3n3 ) ( - ( + 0 ( * Nl11arg23 1 ) ) ) ) 0 ) ( = ( - ( + 0 ( * Nl11arg33 1 ) ) ) 0 ) ( = ( - ( + 0 ( * Nl11arg43 1 ) ) ) 0 ) ( = ( - ( + 0 ( * Nl11arg53 1 ) ) ) 0 ) ) ))
(assert ( or ( and ( <= ( + 1 ( * ( - 1 ) undef1 ) ) 0 ) ( <= ( + 1 ( * ( - 1 ) undef2 ) ) 0 ) ( not ( <= ( + undef289 undef290 ( * ( - 1 ) undef292 ) ) 0 ) ) ( not ( <= ( + undef289 ( * ( - 1 ) undef292 ) ) 0 ) ) ( not ( <= undef290 0 ) ) ( <= ( + 1 undef301 ( * ( - 1 ) undef302 ) ) 0 ) ( <= ( + 1 ( * ( - 1 ) undef302 ) ) 0 ) ( <= ( + 1 ( * ( - 1 ) undef366 ) ) 0 ) ( <= ( + undef1 ( * ( - 1 ) undef366 ) ) 0 ) ( <= ( + ( * ( - 1 ) undef2 ) undef289 ) 0 ) ( <= ( * ( - 1 ) undef301 ) 0 ) ( <= ( * ( - 1 ) undef303 ) 0 ) ( <= ( * ( - 1 ) undef367 ) 0 ) ( <= ( + 2 ( * ( - 1 ) undef2 ) undef291 ) 0 ) ( <= ( + 2 ( * ( - 1 ) undef2 ) undef292 ) 0 ) ( not ( <= ( + ( - 1 ) undef289 ) 0 ) ) ( not ( <= ( + ( - 1 ) undef289 undef290 ( * ( - 1 ) undef291 ) ) 0 ) ) ( not ( <= ( + ( - 1 ) undef289 ( * ( - 1 ) undef291 ) ) 0 ) ) ( <= ( + ( + ( + ( + ( + ( + Nl11CT1 ( * Nl11arg11 0 ) ) ( * Nl11arg21 0 ) ) ( * Nl11arg31 0 ) ) ( * Nl11arg41 0 ) ) ( * Nl11arg51 0 ) ) ( * ( + 0 ( * Nl11arg11 1 ) ) undef289 ) ( * ( + 0 ( * Nl11arg21 1 ) ) undef290 ) ( * ( + 0 ( * Nl11arg31 1 ) ) undef291 ) ( * ( + 0 ( * Nl11arg41 1 ) ) undef292 ) ( * ( + 0 ( * Nl11arg51 1 ) ) undef293 ) ) 0 ) ( <= ( + ( + ( + ( + ( + ( + Nl11CT2 ( * Nl11arg12 0 ) ) ( * Nl11arg22 0 ) ) ( * Nl11arg32 0 ) ) ( * Nl11arg42 0 ) ) ( * Nl11arg52 0 ) ) ( * ( + 0 ( * Nl11arg12 1 ) ) undef289 ) ( * ( + 0 ( * Nl11arg22 1 ) ) undef290 ) ( * ( + 0 ( * Nl11arg32 1 ) ) undef291 ) ( * ( + 0 ( * Nl11arg42 1 ) ) undef292 ) ( * ( + 0 ( * Nl11arg52 1 ) ) undef293 ) ) 0 ) ( <= ( + ( + ( + ( + ( + ( + Nl11CT3 ( * Nl11arg13 0 ) ) ( * Nl11arg23 0 ) ) ( * Nl11arg33 0 ) ) ( * Nl11arg43 0 ) ) ( * Nl11arg53 0 ) ) ( * ( + 0 ( * Nl11arg13 1 ) ) undef289 ) ( * ( + 0 ( * Nl11arg23 1 ) ) undef290 ) ( * ( + 0 ( * Nl11arg33 1 ) ) undef291 ) ( * ( + 0 ( * Nl11arg43 1 ) ) undef292 ) ( * ( + 0 ( * Nl11arg53 1 ) ) undef293 ) ) 0 ) ) ( and ( <= ( + 1 ( * ( - 1 ) arg1 ) ) 0 ) ( <= ( + 1 ( * ( - 1 ) arg2 ) ) 0 ) ( not ( <= ( + undef276 undef277 ( * ( - 1 ) undef279 ) ) 0 ) ) ( not ( <= ( + undef276 ( * ( - 1 ) undef279 ) ) 0 ) ) ( not ( <= undef277 0 ) ) ( <= ( + ( * ( - 1 ) arg2 ) undef276 ) 0 ) ( <= ( + ( * ( - 1 ) arg3 ) undef288 ) 0 ) ( <= ( + 2 ( * ( - 1 ) arg2 ) undef278 ) 0 ) ( <= ( + 2 ( * ( - 1 ) arg2 ) undef279 ) 0 ) ( not ( <= ( + ( - 1 ) undef276 ) 0 ) ) ( not ( <= ( + ( - 1 ) undef276 undef277 ( * ( - 1 ) undef278 ) ) 0 ) ) ( not ( <= ( + ( - 1 ) undef276 ( * ( - 1 ) undef278 ) ) 0 ) ) ( <= ( + ( + ( + ( + ( + ( + Nl11CT1 ( * Nl11arg11 0 ) ) ( * Nl11arg21 0 ) ) ( * Nl11arg31 0 ) ) ( * Nl11arg41 0 ) ) ( * Nl11arg51 0 ) ) ( * ( + 0 ( * Nl11arg11 1 ) ) undef276 ) ( * ( + 0 ( * Nl11arg21 1 ) ) undef277 ) ( * ( + 0 ( * Nl11arg31 1 ) ) undef278 ) ( * ( + 0 ( * Nl11arg41 1 ) ) undef279 ) ( * ( + 0 ( * Nl11arg51 1 ) ) undef280 ) ) 0 ) ( <= ( + ( + ( + ( + ( + ( + Nl11CT2 ( * Nl11arg12 0 ) ) ( * Nl11arg22 0 ) ) ( * Nl11arg32 0 ) ) ( * Nl11arg42 0 ) ) ( * Nl11arg52 0 ) ) ( * ( + 0 ( * Nl11arg12 1 ) ) undef276 ) ( * ( + 0 ( * Nl11arg22 1 ) ) undef277 ) ( * ( + 0 ( * Nl11arg32 1 ) ) undef278 ) ( * ( + 0 ( * Nl11arg42 1 ) ) undef279 ) ( * ( + 0 ( * Nl11arg52 1 ) ) undef280 ) ) 0 ) ( <= ( + ( + ( + ( + ( + ( + Nl11CT3 ( * Nl11arg13 0 ) ) ( * Nl11arg23 0 ) ) ( * Nl11arg33 0 ) ) ( * Nl11arg43 0 ) ) ( * Nl11arg53 0 ) ) ( * ( + 0 ( * Nl11arg13 1 ) ) undef276 ) ( * ( + 0 ( * Nl11arg23 1 ) ) undef277 ) ( * ( + 0 ( * Nl11arg33 1 ) ) undef278 ) ( * ( + 0 ( * Nl11arg43 1 ) ) undef279 ) ( * ( + 0 ( * Nl11arg53 1 ) ) undef280 ) ) 0 ) ) ))
(assert ( or ( and ( and ( >= lam13n0 0 ) ( >= lam13n1 0 ) ( >= lam13n2 0 ) ( >= lam13n3 0 ) ( >= lam13n4 0 ) ( >= lam13n5 0 ) ( >= lam13n6 0 ) ( >= lam13n7 0 ) ( >= lam13n8 0 ) ( >= lam13n9 0 ) ( >= lam13n10 0 ) ( > ( + ( * 1 lam13n0 ) ( * 1 lam13n1 ) ( * 1 lam13n2 ) ( * 2 lam13n4 ) ( * 2 lam13n5 ) ( * 2 lam13n6 ) ( * 3 lam13n7 ) ( * Nl11CT1 lam13n8 ) ( * Nl11CT2 lam13n9 ) ( * Nl11CT3 lam13n10 ) ( - 1 ( - ( + ( + ( + ( + ( + RFN1_CT ( * RFN1_arg1 0 ) ) ( * RFN1_arg2 0 ) ) ( * RFN1_arg3 0 ) ) ( * RFN1_arg4 0 ) ) ( * RFN1_arg5 0 ) ) RFN1_CT ) ) ) 0 ) ( = ( + ( * ( - 1 ) lam13n0 ) ( * ( - 1 ) lam13n4 ) ( * ( - 1 ) lam13n5 ) ( * ( - 1 ) lam13n6 ) ( * ( - 1 ) lam13n7 ) ( * Nl11arg11 lam13n8 ) ( * Nl11arg12 lam13n9 ) ( * Nl11arg13 lam13n10 ) ( - ( - RFN1_arg1 ) ) ) 0 ) ( = ( + ( * ( - 1 ) lam13n0 ) ( * ( - 1 ) lam13n1 ) ( * ( - 1 ) lam13n4 ) ( * Nl11arg21 lam13n8 ) ( * Nl11arg22 lam13n9 ) ( * Nl11arg23 lam13n10 ) ( - ( - RFN1_arg2 ) ) ) 0 ) ( = ( + ( * 1 lam13n4 ) ( * 1 lam13n5 ) ( * Nl11arg31 lam13n8 ) ( * Nl11arg32 lam13n9 ) ( * Nl11arg33 lam13n10 ) ( - ( - RFN1_arg3 ) ) ) 0 ) ( = ( + ( * 1 lam13n0 ) ( * 1 lam13n6 ) ( * Nl11arg41 lam13n8 ) ( * Nl11arg42 lam13n9 ) ( * Nl11arg43 lam13n10 ) ( - ( - RFN1_arg4 ) ) ) 0 ) ( = ( + ( * Nl11arg51 lam13n8 ) ( * Nl11arg52 lam13n9 ) ( * Nl11arg53 lam13n10 ) ( - ( - RFN1_arg5 ) ) ) 0 ) ( = ( + ( * ( - 1 ) lam13n2 ) ( - ( + 0 ( * RFN1_arg1 1 ) ) ) ) 0 ) ( = ( + ( * ( - 1 ) lam13n3 ) ( - ( + 0 ( * RFN1_arg2 1 ) ) ) ) 0 ) ( = ( - ( + 0 ( * RFN1_arg3 1 ) ) ) 0 ) ( = ( - ( + 0 ( * RFN1_arg4 1 ) ) ) 0 ) ( = ( - ( + 0 ( * RFN1_arg5 1 ) ) ) 0 ) ) ( and ( and ( >= lam11n0 0 ) ( >= lam11n1 0 ) ( >= lam11n2 0 ) ( >= lam11n3 0 ) ( >= lam11n4 0 ) ( >= lam11n5 0 ) ( >= lam11n6 0 ) ( >= lam11n7 0 ) ( >= lam11n8 0 ) ( >= lam11n9 0 ) ( >= lam11n10 0 ) ( > ( + ( * 1 lam11n0 ) ( * 1 lam11n1 ) ( * 1 lam11n2 ) ( * 2 lam11n4 ) ( * 2 lam11n5 ) ( * 2 lam11n6 ) ( * 3 lam11n7 ) ( * Nl11CT1 lam11n8 ) ( * Nl11CT2 lam11n9 ) ( * Nl11CT3 lam11n10 ) ( - 1 ( - RFN1_CT ) ) ) 0 ) ( = ( + ( * ( - 1 ) lam11n0 ) ( * ( - 1 ) lam11n4 ) ( * ( - 1 ) lam11n5 ) ( * ( - 1 ) lam11n6 ) ( * ( - 1 ) lam11n7 ) ( * Nl11arg11 lam11n8 ) ( * Nl11arg12 lam11n9 ) ( * Nl11arg13 lam11n10 ) ( - ( - RFN1_arg1 ) ) ) 0 ) ( = ( + ( * ( - 1 ) lam11n0 ) ( * ( - 1 ) lam11n1 ) ( * ( - 1 ) lam11n4 ) ( * Nl11arg21 lam11n8 ) ( * Nl11arg22 lam11n9 ) ( * Nl11arg23 lam11n10 ) ( - ( - RFN1_arg2 ) ) ) 0 ) ( = ( + ( * 1 lam11n4 ) ( * 1 lam11n5 ) ( * Nl11arg31 lam11n8 ) ( * Nl11arg32 lam11n9 ) ( * Nl11arg33 lam11n10 ) ( - ( - RFN1_arg3 ) ) ) 0 ) ( = ( + ( * 1 lam11n0 ) ( * 1 lam11n6 ) ( * Nl11arg41 lam11n8 ) ( * Nl11arg42 lam11n9 ) ( * Nl11arg43 lam11n10 ) ( - ( - RFN1_arg4 ) ) ) 0 ) ( = ( + ( * Nl11arg51 lam11n8 ) ( * Nl11arg52 lam11n9 ) ( * Nl11arg53 lam11n10 ) ( - ( - RFN1_arg5 ) ) ) 0 ) ( = ( * ( - 1 ) lam11n2 ) 0 ) ( = ( * ( - 1 ) lam11n3 ) 0 ) ) ( and ( >= lam12n0 0 ) ( >= lam12n1 0 ) ( >= lam12n2 0 ) ( >= lam12n3 0 ) ( >= lam12n4 0 ) ( >= lam12n5 0 ) ( >= lam12n6 0 ) ( >= lam12n7 0 ) ( >= lam12n8 0 ) ( >= lam12n9 0 ) ( >= lam12n10 0 ) ( > ( + ( * 1 lam12n0 ) ( * 1 lam12n1 ) ( * 1 lam12n2 ) ( * 2 lam12n4 ) ( * 2 lam12n5 ) ( * 2 lam12n6 ) ( * 3 lam12n7 ) ( * Nl11CT1 lam12n8 ) ( * Nl11CT2 lam12n9 ) ( * Nl11CT3 lam12n10 ) ( - 1 ( + ( - ( + ( + ( + ( + ( + RFN1_CT ( * RFN1_arg1 0 ) ) ( * RFN1_arg2 0 ) ) ( * RFN1_arg3 0 ) ) ( * RFN1_arg4 0 ) ) ( * RFN1_arg5 0 ) ) RFN1_CT ) 1 ) ) ) 0 ) ( = ( + ( * ( - 1 ) lam12n0 ) ( * ( - 1 ) lam12n4 ) ( * ( - 1 ) lam12n5 ) ( * ( - 1 ) lam12n6 ) ( * ( - 1 ) lam12n7 ) ( * Nl11arg11 lam12n8 ) ( * Nl11arg12 lam12n9 ) ( * Nl11arg13 lam12n10 ) ( - ( - RFN1_arg1 ) ) ) 0 ) ( = ( + ( * ( - 1 ) lam12n0 ) ( * ( - 1 ) lam12n1 ) ( * ( - 1 ) lam12n4 ) ( * Nl11arg21 lam12n8 ) ( * Nl11arg22 lam12n9 ) ( * Nl11arg23 lam12n10 ) ( - ( - RFN1_arg2 ) ) ) 0 ) ( = ( + ( * 1 lam12n4 ) ( * 1 lam12n5 ) ( * Nl11arg31 lam12n8 ) ( * Nl11arg32 lam12n9 ) ( * Nl11arg33 lam12n10 ) ( - ( - RFN1_arg3 ) ) ) 0 ) ( = ( + ( * 1 lam12n0 ) ( * 1 lam12n6 ) ( * Nl11arg41 lam12n8 ) ( * Nl11arg42 lam12n9 ) ( * Nl11arg43 lam12n10 ) ( - ( - RFN1_arg4 ) ) ) 0 ) ( = ( + ( * Nl11arg51 lam12n8 ) ( * Nl11arg52 lam12n9 ) ( * Nl11arg53 lam12n10 ) ( - ( - RFN1_arg5 ) ) ) 0 ) ( = ( + ( * ( - 1 ) lam12n2 ) ( - ( + 0 ( * RFN1_arg1 1 ) ) ) ) 0 ) ( = ( + ( * ( - 1 ) lam12n3 ) ( - ( + 0 ( * RFN1_arg2 1 ) ) ) ) 0 ) ( = ( - ( + 0 ( * RFN1_arg3 1 ) ) ) 0 ) ( = ( - ( + 0 ( * RFN1_arg4 1 ) ) ) 0 ) ( = ( - ( + 0 ( * RFN1_arg5 1 ) ) ) 0 ) ) ) ) ( and ( >= lam10n0 0 ) ( >= lam10n1 0 ) ( >= lam10n2 0 ) ( >= lam10n3 0 ) ( >= lam10n4 0 ) ( >= lam10n5 0 ) ( >= lam10n6 0 ) ( >= lam10n7 0 ) ( >= lam10n8 0 ) ( >= lam10n9 0 ) ( >= lam10n10 0 ) ( > ( + ( * 1 lam10n0 ) ( * 1 lam10n1 ) ( * 1 lam10n2 ) ( * 2 lam10n4 ) ( * 2 lam10n5 ) ( * 2 lam10n6 ) ( * 3 lam10n7 ) ( * Nl11CT1 lam10n8 ) ( * Nl11CT2 lam10n9 ) ( * Nl11CT3 lam10n10 ) ( - 1 ) ) 0 ) ( = ( + ( * ( - 1 ) lam10n0 ) ( * ( - 1 ) lam10n4 ) ( * ( - 1 ) lam10n5 ) ( * ( - 1 ) lam10n6 ) ( * ( - 1 ) lam10n7 ) ( * Nl11arg11 lam10n8 ) ( * Nl11arg12 lam10n9 ) ( * Nl11arg13 lam10n10 ) ) 0 ) ( = ( + ( * ( - 1 ) lam10n0 ) ( * ( - 1 ) lam10n1 ) ( * ( - 1 ) lam10n4 ) ( * Nl11arg21 lam10n8 ) ( * Nl11arg22 lam10n9 ) ( * Nl11arg23 lam10n10 ) ) 0 ) ( = ( + ( * 1 lam10n4 ) ( * 1 lam10n5 ) ( * Nl11arg31 lam10n8 ) ( * Nl11arg32 lam10n9 ) ( * Nl11arg33 lam10n10 ) ) 0 ) ( = ( + ( * 1 lam10n0 ) ( * 1 lam10n6 ) ( * Nl11arg41 lam10n8 ) ( * Nl11arg42 lam10n9 ) ( * Nl11arg43 lam10n10 ) ) 0 ) ( = ( + ( * Nl11arg51 lam10n8 ) ( * Nl11arg52 lam10n9 ) ( * Nl11arg53 lam10n10 ) ) 0 ) ( = ( * ( - 1 ) lam10n2 ) 0 ) ( = ( * ( - 1 ) lam10n3 ) 0 ) ) ))
(check-sat)
(exit)
